c FILE: i160-335

c SOURCE: From steinlib

c DESCRIPTION: Steinlib instance with 160 nodes and 320 edges.

p edge 160 320
e 1 40
e 1 57
e 1 61
e 1 85
e 1 93
e 1 105
e 1 143
e 2 80
e 2 91
e 2 105
e 2 145
e 2 154
e 3 106
e 4 8
e 4 22
e 4 109
e 4 131
e 5 113
e 5 124
e 5 146
e 6 8
e 6 48
e 6 116
e 6 119
e 6 147
e 7 74
e 7 81
e 7 97
e 8 17
e 9 15
e 9 23
e 9 31
e 9 37
e 9 78
e 9 94
e 9 98
e 9 155
e 10 20
e 10 111
e 10 119
e 10 128
e 10 136
e 11 47
e 11 48
e 11 50
e 11 75
e 11 77
e 12 97
e 12 126
e 13 74
e 13 140
e 13 155
e 14 61
e 14 130
e 14 132
e 15 83
e 15 120
e 15 124
e 15 142
e 15 144
e 15 156
e 16 61
e 16 113
e 16 139
e 16 152
e 17 34
e 18 22
e 18 93
e 19 31
e 19 45
e 19 66
e 19 77
e 19 99
e 19 110
e 19 127
e 20 101
e 20 108
e 20 120
e 21 139
e 21 145
e 22 93
e 22 111
e 22 140
e 23 51
e 23 69
e 23 70
e 23 101
e 23 114
e 23 133
e 23 144
e 24 73
e 24 78
e 24 102
e 24 112
e 25 48
e 25 70
e 25 95
e 26 70
e 26 99
e 26 116
e 26 126
e 26 137
e 26 142
e 27 71
e 27 86
e 27 97
e 27 103
e 27 113
e 27 119
e 27 153
e 28 39
e 28 100
e 28 103
e 28 142
e 29 127
e 29 131
e 30 89
e 31 109
e 31 145
e 31 148
e 32 52
e 32 112
e 32 127
e 32 141
e 32 147
e 33 65
e 33 76
e 34 72
e 34 77
e 34 94
e 34 156
e 35 39
e 35 66
e 35 145
e 36 76
e 36 79
e 36 88
e 38 85
e 39 91
e 39 116
e 40 50
e 40 68
e 40 77
e 40 119
e 41 97
e 41 102
e 41 146
e 42 101
e 42 133
e 42 134
e 42 143
e 43 77
e 43 125
e 43 131
e 44 66
e 44 92
e 45 57
e 45 80
e 45 100
e 45 160
e 46 51
e 46 89
e 47 52
e 47 77
e 47 159
e 48 151
e 49 63
e 49 68
e 49 91
e 49 152
e 50 56
e 50 78
e 50 137
e 50 139
e 50 140
e 51 82
e 51 83
e 51 105
e 51 146
e 52 57
e 52 73
e 52 95
e 52 104
e 52 136
e 52 139
e 52 150
e 52 155
e 52 160
e 53 65
e 53 86
e 53 139
e 54 86
e 54 101
e 54 120
e 54 121
e 54 134
e 55 70
e 55 82
e 55 145
e 56 60
e 56 67
e 57 113
e 57 142
e 58 108
e 59 92
e 59 102
e 59 158
e 60 61
e 60 77
e 60 93
e 60 156
e 61 63
e 61 71
e 61 97
e 61 100
e 61 108
e 61 118
e 61 124
e 62 109
e 63 121
e 63 145
e 63 156
e 63 158
e 64 65
e 64 107
e 64 145
e 65 122
e 65 148
e 65 154
e 66 123
e 67 93
e 67 128
e 68 81
e 68 89
e 69 108
e 69 114
e 70 144
e 71 156
e 72 136
e 73 112
e 73 121
e 73 146
e 74 93
e 75 97
e 75 109
e 75 117
e 77 79
e 77 87
e 78 101
e 81 112
e 81 154
e 81 156
e 82 157
e 83 131
e 84 131
e 84 142
e 85 89
e 85 92
e 85 99
e 85 149
e 86 87
e 86 129
e 89 119
e 90 150
e 91 147
e 91 153
e 93 112
e 93 120
e 93 126
e 93 139
e 93 143
e 93 144
e 93 147
e 94 143
e 96 102
e 96 125
e 98 100
e 98 126
e 99 127
e 99 128
e 99 147
e 99 159
e 100 124
e 104 116
e 104 154
e 105 149
e 106 147
e 108 115
e 108 116
e 108 145
e 109 114
e 109 120
e 109 134
e 110 113
e 110 159
e 111 122
e 113 154
e 113 157
e 114 136
e 116 125
e 116 138
e 116 159
e 117 151
e 117 153
e 118 157
e 121 125
e 121 127
e 124 131
e 125 129
e 125 150
e 127 137
e 129 156
e 130 157
e 134 135
e 137 143
e 140 142
e 140 159
e 144 151
e 145 156
e 148 160
